
  14    0


   0   8 2 3 4 9 10 11 12 13 
   2   3 8 7 6 
   1   2 6 5 
   6   1 5 
   7   1 14
   1   1 14
   4   1 14
   3   1 14
   1   1 14
   2   1 14
   6   1 14
   5   1 14
   8   1 14
   0   0 
